# Solution for model Master problem
# Objective value = 4608
X_0_6 1
X_1_6 0
X_2_6 0
X_3_6 0
X_4_6 0
X_5_6 0
X_6_6 0
X_7_6 1
X_8_6 0
X_0_8 0
X_1_8 1
X_2_8 0
X_3_8 0
X_4_8 0
X_5_8 0
X_6_8 0
X_7_8 0
X_8_8 0
X_0_14 0
X_1_14 0
X_2_14 0
X_3_14 0
X_4_14 1
X_5_14 0
X_6_14 0
X_7_14 0
X_8_14 0
X_0_18 0
X_1_18 0
X_2_18 1
X_3_18 0
X_4_18 0
X_5_18 0
X_6_18 0
X_7_18 0
X_8_18 0
X_0_22 0
X_1_22 0
X_2_22 0
X_3_22 1
X_4_22 0
X_5_22 0
X_6_22 0
X_7_22 0
X_8_22 0
X_0_24 0
X_1_24 0
X_2_24 0
X_3_24 0
X_4_24 0
X_5_24 0
X_6_24 0
X_7_24 0
X_8_24 0
X_0_28 0
X_1_28 0
X_2_28 0
X_3_28 0
X_4_28 0
X_5_28 1
X_6_28 0
X_7_28 0
X_8_28 0
X_0_30 0
X_1_30 0
X_2_30 0
X_3_30 0
X_4_30 0
X_5_30 0
X_6_30 0
X_7_30 0
X_8_30 0
X_0_44 0
X_1_44 0
X_2_44 0
X_3_44 0
X_4_44 0
X_5_44 0
X_6_44 1
X_7_44 0
X_8_44 0
X_0_46 0
X_1_46 0
X_2_46 0
X_3_46 0
X_4_46 0
X_5_46 0
X_6_46 0
X_7_46 0
X_8_46 0
X_0_52 0
X_1_52 0
X_2_52 0
X_3_52 0
X_4_52 0
X_5_52 0
X_6_52 0
X_7_52 0
X_8_52 0
X_0_54 0
X_1_54 0
X_2_54 0
X_3_54 0
X_4_54 0
X_5_54 0
X_6_54 0
X_7_54 0
X_8_54 0
X_0_58 0
X_1_58 0
X_2_58 0
X_3_58 0
X_4_58 0
X_5_58 0
X_6_58 0
X_7_58 0
X_8_58 0
theta_0_0_0 7
theta_0_0_1 23
theta_0_0_2 15
theta_0_0_3 29
theta_1_0_0 19
theta_1_0_1 23
theta_1_0_2 15
theta_1_0_3 45
Z_0_0_0_1_0 24
ZP_0_0_0_1_0 24
Z_1_0_0_1_0 24
ZP_1_0_0_1_0 24
Z_0_1_0_1_0 96
ZP_0_1_0_1_0 96
Z_1_1_0_1_0 96
ZP_1_1_0_1_0 96
Z_0_0_0_0_1 96
ZP_0_0_0_0_1 -96
Z_1_0_0_0_1 24
ZP_1_0_0_0_1 -24
Z_0_1_0_0_1 96
ZP_0_1_0_0_1 -96
Z_1_1_0_0_1 24
ZP_1_1_0_0_1 -24
Z_0_0_0_2_1 48
ZP_0_0_0_2_1 -48
Z_1_0_0_2_1 48
ZP_1_0_0_2_1 -48
Z_0_1_0_2_1 48
ZP_0_1_0_2_1 -48
Z_1_1_0_2_1 48
ZP_1_1_0_2_1 -48
Z_0_0_0_1_2 48
ZP_0_0_0_1_2 48
Z_1_0_0_1_2 48
ZP_1_0_0_1_2 48
Z_0_1_0_1_2 48
ZP_0_1_0_1_2 48
Z_1_1_0_1_2 48
ZP_1_1_0_1_2 48
Z_0_0_0_3_2 84
ZP_0_0_0_3_2 84
Z_1_0_0_3_2 180
ZP_1_0_0_3_2 180
Z_0_1_0_3_2 84
ZP_0_1_0_3_2 84
Z_1_1_0_3_2 180
ZP_1_1_0_3_2 180
Z_0_0_0_2_3 180
ZP_0_0_0_2_3 -180
Z_1_0_0_2_3 180
ZP_1_0_0_2_3 -180
Z_0_1_0_2_3 84
ZP_0_1_0_2_3 -84
Z_1_1_0_2_3 84
ZP_1_1_0_2_3 -84
eta_0_0 2232
eta_0_1 660
eta_0_2 600
eta_0_3 1056
tmpp_var00 7
tmpp_var10 9
tmpp_var20 19
tmpp_var30 23
tmpp_var40 15
tmpp_var50 29
tmpp_var60 45
theta 4608
AA0 15
BB0 45
tau_0_6 1
tau_1_6 0
tau_0_8 0
tau_1_8 0
tau_0_14 0
tau_1_14 0
tau_0_18 0
tau_1_18 0
tau_0_22 1
tau_1_22 1
tau_0_24 0
tau_1_24 0
tau_0_28 1
tau_1_28 1
tau_0_30 0
tau_1_30 0
tau_0_44 1
tau_1_44 1
tau_0_46 0
tau_1_46 0
tau_0_52 0
tau_1_52 1
tau_0_54 0
tau_1_54 0
tau_0_58 0
tau_1_58 0
